34
20
0 20 24 26 27 28 31 33
1 21 28 29 31
2 20 26 27 28 29 33
3 20 21 23 27 28 29 30 31 33
4 20 21 24 25 26 28 33
5 20 26 27 29 30 31 33
6 21 22 25 26 27 28 31 33
7 20 21 23 28 29 31
8 21 26 27 29 30 31
9 21 22 23 25 26 27 31 33
10 20 21 23 27 33
11 21 31 32 33
12 22 26 27 29 30
13 25 26 27
14 24 25 28 29 33
15 25 27 31
16 20 29 33
17 20 30
18 23 30
19 22
